* ENCODING=ISO-8859-1
NAME          CPLEX
ROWS
 N  obj1    
 G  c1      
 G  c2      
 G  c3      
 G  c4      
 G  c5      
 G  c6      
 G  c7      
 G  c8      
 G  c9      
 G  c10     
 G  c11     
 G  c12     
 G  c13     
 G  c14     
 G  c15     
 G  c16     
 G  c17     
 G  c18     
 G  c19     
 G  c20     
 G  c21     
 G  c22     
 G  c23     
 G  c24     
 G  c25     
 G  c26     
 G  c27     
 G  c28     
 G  c29     
 G  c30     
 G  c31     
 G  c32     
 G  c33     
 G  c34     
 G  c35     
 G  c36     
 G  c37     
 G  c38     
 G  c39     
 G  c40     
 G  c41     
 G  c42     
 G  c43     
 G  c44     
 G  c45     
 G  c46     
 G  c47     
 G  c48     
 G  c49     
 G  c50     
 G  c51     
 G  c52     
 G  c53     
 G  c54     
 G  c55     
 G  c56     
 G  c57     
 G  c58     
 G  c59     
 G  c60     
COLUMNS
    MARK0000  'MARKER'                 'INTORG'
    x1        obj1                            1
    x1        c2                            325
    x1        c11                           838
    x1        c22                           988
    x1        c38                           135
    x1        c42                           225
    x1        c54                           962
    x1        c56                           425
    x1        c57                           659
    x2        obj1                            1
    x2        c23                           525
    x2        c38                           261
    x2        c43                           534
    x2        c52                           233
    x3        obj1                            1
    x3        c7                            467
    x3        c13                           745
    x3        c17                           961
    x3        c27                           579
    x3        c34                           731
    x3        c39                           107
    x3        c42                           741
    x3        c46                           797
    x4        obj1                            1
    x4        c7                            510
    x4        c27                           894
    x4        c52                           126
    x4        c57                           353
    x5        obj1                            1
    x5        c31                           801
    x5        c37                           587
    x5        c42                           107
    x5        c47                           209
    x6        obj1                            1
    x6        c2                            222
    x6        c41                           337
    x6        c45                           101
    x6        c54                           640
    x7        obj1                            1
    x7        c11                           926
    x7        c13                           596
    x7        c19                           684
    x7        c41                           505
    x7        c47                           803
    x7        c49                           745
    x7        c53                           588
    x7        c58                           603
    x8        obj1                            1
    x8        c5                            768
    x8        c18                           888
    x8        c23                           365
    x8        c26                           571
    x8        c27                           197
    x8        c52                           369
    x9        obj1                            1
    x9        c2                            963
    x9        c28                           456
    x9        c39                           596
    x9        c43                           448
    x9        c44                           719
    x9        c48                           737
    x9        c55                           275
    x10       obj1                            1
    x10       c11                           839
    x10       c14                           424
    x10       c17                           941
    x10       c22                           451
    x10       c27                           604
    x10       c38                           719
    x10       c50                           206
    x11       obj1                            1
    x11       c8                            427
    x11       c17                           827
    x12       obj1                            1
    x12       c10                           847
    x12       c40                           417
    x12       c41                           765
    x12       c44                           774
    x12       c47                           110
    x12       c56                           141
    x13       obj1                            1
    x13       c32                           868
    x13       c40                           734
    x13       c43                           169
    x13       c46                           322
    x13       c50                           325
    x13       c57                           254
    x14       obj1                            1
    x14       c10                           634
    x14       c22                           543
    x14       c50                           259
    x15       obj1                            1
    x15       c2                            378
    x15       c3                            582
    x15       c5                            746
    x15       c7                            612
    x15       c10                           676
    x15       c18                           118
    x15       c33                           851
    x15       c38                           264
    x15       c50                           626
    x16       obj1                            1
    x16       c6                            996
    x16       c7                            807
    x16       c13                           119
    x16       c35                           584
    x16       c37                           156
    x17       obj1                            1
    x17       c4                            674
    x17       c7                            402
    x17       c9                            349
    x17       c21                           380
    x17       c45                           954
    x17       c49                           136
    x17       c53                           292
    x17       c54                           557
    x17       c57                           556
    x18       obj1                            1
    x18       c1                            767
    x18       c2                            674
    x18       c5                            649
    x18       c22                           645
    x18       c24                           143
    x18       c34                           868
    x18       c45                           646
    x18       c46                           997
    x18       c47                           681
    x18       c56                           427
    x18       c57                           472
    x19       obj1                            1
    x19       c8                            186
    x19       c15                           695
    x19       c18                           593
    x19       c19                           450
    x19       c27                           542
    x19       c28                           432
    x19       c29                           468
    x19       c40                           380
    x19       c44                           320
    x19       c54                           317
    x20       obj1                            1
    x20       c10                           468
    x20       c16                           265
    x20       c20                           353
    x20       c28                           992
    x20       c31                           140
    x20       c35                           624
    x20       c48                           860
    x20       c50                           292
    x21       obj1                            1
    x21       c23                           685
    x21       c28                           777
    x21       c39                           851
    x21       c48                           369
    x21       c56                           547
    x21       c57                           223
    x22       obj1                            1
    x22       c4                            497
    x22       c10                           990
    x22       c16                           492
    x22       c17                           743
    x22       c41                           947
    x22       c44                           874
    x22       c60                           811
    x23       obj1                            1
    x23       c53                           229
    x24       obj1                            1
    x24       c5                            207
    x24       c7                            151
    x24       c14                           970
    x24       c17                           487
    x24       c35                           939
    x24       c36                           432
    x24       c50                           783
    x24       c52                           396
    x25       obj1                            1
    x25       c24                           368
    x25       c26                           991
    x25       c33                           685
    x25       c45                           848
    x25       c49                           812
    x25       c52                           835
    x26       obj1                            1
    x26       c2                            817
    x26       c10                           109
    x26       c11                           693
    x26       c26                           631
    x26       c28                           593
    x26       c29                           530
    x26       c37                           894
    x26       c54                           962
    x26       c56                           915
    x27       obj1                            1
    x27       c25                           685
    x27       c29                           434
    x27       c46                           838
    x27       c55                           315
    x28       obj1                            1
    x28       c9                            527
    x28       c13                           756
    x28       c50                           409
    x29       obj1                            1
    x29       c26                           930
    x29       c28                           440
    x29       c30                           407
    x29       c42                           625
    x29       c60                           872
    x30       obj1                            1
    x30       c59                           216
    x31       obj1                            1
    x31       c21                           448
    x31       c28                           315
    x31       c31                           680
    x31       c33                           752
    x31       c43                           504
    x32       obj1                            1
    x32       c3                            862
    x32       c8                            789
    x32       c18                           286
    x32       c24                           294
    x32       c25                           758
    x32       c35                           846
    x33       obj1                            1
    x33       c1                            820
    x33       c18                           208
    x33       c28                           889
    x33       c49                           740
    x34       obj1                            1
    x34       c6                            635
    x34       c20                           450
    x34       c37                           567
    x34       c39                           747
    x34       c51                           674
    x34       c60                           113
    x35       obj1                            1
    x35       c14                           588
    x35       c17                           885
    x35       c23                           308
    x35       c29                           386
    x35       c35                           979
    x35       c38                           455
    x35       c39                           507
    x35       c45                           711
    x36       obj1                            1
    x36       c3                            737
    x36       c32                           114
    x36       c38                           544
    x36       c43                           813
    x36       c49                           717
    x36       c56                           603
    x36       c60                           273
    x37       obj1                            1
    x37       c8                            518
    x37       c9                            307
    x37       c42                           737
    x37       c52                           971
    x37       c56                           446
    x37       c59                           289
    x38       obj1                            1
    x38       c29                           712
    x38       c31                           816
    x38       c34                           910
    x38       c40                           201
    x39       obj1                            1
    x39       c16                           298
    x39       c43                           372
    x39       c59                           294
    x40       obj1                            1
    x40       c11                           928
    x40       c15                           682
    x40       c30                           651
    x40       c44                           595
    x40       c46                           192
    x41       obj1                            1
    x41       c10                           426
    x41       c15                           725
    x41       c29                           259
    x41       c37                           509
    x42       obj1                            1
    x42       c16                           301
    x42       c36                           212
    x42       c41                           742
    x42       c42                           678
    x42       c48                           169
    x43       obj1                            1
    x43       c2                            683
    x43       c5                            999
    x43       c11                           916
    x43       c12                           881
    x43       c16                           116
    x43       c22                           605
    x43       c34                           565
    x44       obj1                            1
    x44       c8                            513
    x44       c11                           130
    x44       c14                           829
    x44       c20                           494
    x44       c24                           692
    x44       c26                           861
    x44       c33                           414
    x44       c43                           967
    x44       c46                           743
    x44       c52                           866
    x44       c59                           872
    x45       obj1                            1
    x45       c4                            157
    x45       c29                           351
    x45       c32                           128
    x45       c42                           742
    x46       obj1                            1
    x46       c16                           791
    x46       c21                           712
    x46       c22                           733
    x46       c26                           677
    x46       c31                           193
    x46       c37                           688
    x46       c42                           826
    x46       c44                           451
    x46       c48                           868
    x47       obj1                            1
    x47       c4                            597
    x47       c5                            739
    x47       c37                           415
    x47       c40                           811
    x47       c46                           746
    x47       c54                           823
    x47       c58                           850
    x48       obj1                            1
    x48       c5                            638
    x48       c8                            959
    x48       c21                           256
    x48       c37                           113
    x48       c45                           860
    x49       obj1                            1
    x49       c4                            352
    x49       c23                           313
    x49       c30                           835
    x49       c51                           353
    x50       obj1                            1
    x50       c2                            965
    x50       c12                           325
    x50       c44                           527
    x50       c58                           667
    x51       obj1                            1
    x51       c23                           856
    x51       c42                           917
    x51       c46                           513
    x52       obj1                            1
    x52       c34                           721
    x52       c39                           817
    x52       c43                           804
    x53       obj1                            1
    x53       c2                            366
    x53       c5                            844
    x53       c17                           864
    x53       c19                           283
    x53       c27                           283
    x53       c29                           427
    x53       c39                           909
    x53       c47                           336
    x54       obj1                            1
    x54       c1                            613
    x54       c21                           285
    x54       c34                           759
    x54       c35                           599
    x54       c40                           709
    x54       c45                           839
    x54       c52                           219
    x55       obj1                            1
    x55       c7                            281
    x55       c13                           161
    x55       c40                           321
    x56       obj1                            1
    x56       c13                           386
    x56       c26                           302
    x56       c34                           842
    x56       c36                           131
    x56       c48                           805
    x56       c55                           884
    x56       c59                           187
    x57       obj1                            1
    x57       c27                           290
    x57       c33                           105
    x57       c53                           152
    x57       c56                           971
    x58       obj1                            1
    x58       c1                            920
    x58       c4                            201
    x58       c16                           108
    x58       c33                           924
    x58       c44                           556
    x59       obj1                            1
    x59       c4                            735
    x59       c7                            265
    x59       c9                            960
    x59       c11                           512
    x59       c16                           934
    x59       c25                           157
    x59       c51                           596
    x59       c60                           664
    x60       obj1                            1
    x60       c6                            660
    x60       c12                           244
    x60       c20                           238
    x60       c26                           656
    x60       c29                           803
    x60       c38                           135
    x60       c40                           708
    MARK0001  'MARKER'                 'INTEND'
RHS
    rhs       c1                           1560
    rhs       c2                           2697
    rhs       c3                           1091
    rhs       c4                           1607
    rhs       c5                           2795
    rhs       c6                           1146
    rhs       c7                           1748
    rhs       c8                           1696
    rhs       c9                           1072
    rhs       c10                          2075
    rhs       c11                          2891
    rhs       c12                           725
    rhs       c13                          1382
    rhs       c14                          1406
    rhs       c15                          1051
    rhs       c16                          1653
    rhs       c17                          2854
    rhs       c18                          1047
    rhs       c19                           709
    rhs       c20                           768
    rhs       c21                          1041
    rhs       c22                          1983
    rhs       c23                          1526
    rhs       c24                           749
    rhs       c25                           800
    rhs       c26                          2810
    rhs       c27                          1695
    rhs       c28                          2447
    rhs       c29                          2185
    rhs       c30                           947
    rhs       c31                          1315
    rhs       c32                           555
    rhs       c33                          1866
    rhs       c34                          2698
    rhs       c35                          2286
    rhs       c36                           388
    rhs       c37                          1965
    rhs       c38                          1257
    rhs       c39                          2267
    rhs       c40                          2141
    rhs       c41                          1648
    rhs       c42                          2799
    rhs       c43                          2306
    rhs       c44                          2408
    rhs       c45                          2480
    rhs       c46                          2574
    rhs       c47                          1070
    rhs       c48                          1904
    rhs       c49                          1575
    rhs       c50                          1450
    rhs       c51                           812
    rhs       c52                          2008
    rhs       c53                           631
    rhs       c54                          2131
    rhs       c55                           737
    rhs       c56                          2238
    rhs       c57                          1259
    rhs       c58                          1060
    rhs       c59                           929
    rhs       c60                          1367
BOUNDS
 LI bnd       x1        0
 LI bnd       x2        0
 LI bnd       x3        0
 LI bnd       x4        0
 LI bnd       x5        0
 LI bnd       x6        0
 LI bnd       x7        0
 LI bnd       x8        0
 LI bnd       x9        0
 LI bnd       x10       0
 LI bnd       x11       0
 LI bnd       x12       0
 LI bnd       x13       0
 LI bnd       x14       0
 LI bnd       x15       0
 LI bnd       x16       0
 LI bnd       x17       0
 LI bnd       x18       0
 LI bnd       x19       0
 LI bnd       x20       0
 LI bnd       x21       0
 LI bnd       x22       0
 LI bnd       x23       0
 LI bnd       x24       0
 LI bnd       x25       0
 LI bnd       x26       0
 LI bnd       x27       0
 LI bnd       x28       0
 LI bnd       x29       0
 LI bnd       x30       0
 LI bnd       x31       0
 LI bnd       x32       0
 LI bnd       x33       0
 LI bnd       x34       0
 LI bnd       x35       0
 LI bnd       x36       0
 LI bnd       x37       0
 LI bnd       x38       0
 LI bnd       x39       0
 LI bnd       x40       0
 LI bnd       x41       0
 LI bnd       x42       0
 LI bnd       x43       0
 LI bnd       x44       0
 LI bnd       x45       0
 LI bnd       x46       0
 LI bnd       x47       0
 LI bnd       x48       0
 LI bnd       x49       0
 LI bnd       x50       0
 LI bnd       x51       0
 LI bnd       x52       0
 LI bnd       x53       0
 LI bnd       x54       0
 LI bnd       x55       0
 LI bnd       x56       0
 LI bnd       x57       0
 LI bnd       x58       0
 LI bnd       x59       0
 LI bnd       x60       0
ENDATA
